5 5
4 49 0 82 1 90 2 15 3 92
3 30 2 28 0 84 4 4 1 68
0 15 4 34 1 75 2 87 3 99
4 43 0 99 2 75 3 61 1 63
1 2 4 52 2 52 0 15 3 40
-1
0 1 2 4 5
0 3 5
0 1 2 3 5
0 3 5
0 2 3 5
-2
63 140 288 515
204 214
15 60 187 492
240 427
56 153 182

500 9
10 16 23 1 7
20 12 2 19 9
22 17 13 6 3
5 24 18 14 4
15 21 11 0 8
